WARNING: for repeatability, setting FPU to use double precision
============================[ Problem Statistics ]=============================
|                                                                             |
|  Number of variables:            50                                         |
|  Number of clauses:             218                                         |
|  Parse time:                   0.00 s                                       |
|                                                                             |
============================[ Search Statistics ]==============================
| Conflicts |          ORIGINAL         |          LEARNT          | Progress |
|           |    Vars  Clauses Literals |    Limit  Clauses Lit/Cl |          |
===============================================================================
|       100 |      49      212      636 |       79       22      5 |  2.042 % |
===============================================================================
restarts              : 2
conflicts             : 101            (288571 /sec)
decisions             : 134            (0.00 % random) (382857 /sec)
propagations          : 1498           (4280000 /sec)
conflict literals     : 485            (19.44 % deleted)
Memory used           : 20.00 MB
CPU time              : 0.00035 s

SATISFIABLE
